7 100 381
0 47 5
1 1 19 20 28
2 97 35 14 65
3 23 79 5 34
4 77 87 11 65
5 3 9 22 38
6 5 27 25 48
7 41 53 2 37
8 51 87 18 27
9 67 73 10 69
10 89 45 26 69
11 71 99 14 71
12 11 1 22 11
13 85 85 9 79
14 57 11 11 21
15 57 85 18 16
16 71 33 24 26
17 61 13 15 76
18 39 15 23 21
19 13 59 16 13
20 43 99 14 76
21 87 73 8 13
22 11 37 5 18
23 21 11 12 23
24 77 81 8 7
25 3 63 16 30
26 47 95 12 53
27 53 75 15 6
28 73 55 9 54
29 81 71 2 79
30 89 75 10 69
31 11 9 2 1
32 27 37 3 32
33 95 59 20 63
34 63 63 3 30
35 37 21 13 73
36 33 47 25 21
37 23 63 23 10
38 13 55 8 80
39 47 93 16 55
40 45 43 9 8
41 83 7 14 22
42 69 91 4 59
43 13 11 13 51
44 37 15 7 67
45 53 59 16 40
46 97 83 18 74
47 75 31 16 55
